p cnf 3 -1
1 2 3  0  
4 5 6  0  
7 8 9  0  
-2 -1 0  
-3 -1 0  
-3 -2 0  
-5 -4 0  
-6 -4 0  
-6 -5 0  
-8 -7 0  
-9 -7 0  
-9 -8 0  
1 4 7  0  
 2 5 8  0  
 3 6 9  0  
 -4 -1 0  
-7 -1 0  
-7 -4 0  
-5 -2 0  
-8 -2 0  
-8 -5 0  
-6 -3 0  
-9 -3 0  
-9 -6 0  
-1 -5 0  
-1 -9 0  
-5 -9 0  
-4 -8 0 
-2 -6 0 
 -3 -5 0  
-3 -7 0  
 -2 -4 0  
 -6 -8 0  
 -5 -7 0  

